c Random generated cnf formula, satisfiable: false
p cnf 10 50
-10 9 7 0
5 -9 -10 0
3 -9 5 0
8 10 -3 0
-9 10 7 0
-3 8 -9 0
-2 -6 -9 0
6 1 -5 0
4 -9 8 0
-5 3 10 0
-7 5 -9 0
-6 -2 -8 0
-1 -2 -4 0
-3 -1 4 0
-5 -4 10 0
9 6 -3 0
5 1 2 0
9 8 5 0
-4 3 9 0
-5 -9 4 0
2 -8 4 0
-1 9 -3 0
-8 10 9 0
7 -4 -5 0
-1 -10 -4 0
-1 4 -3 0
-5 6 4 0
-8 9 -6 0
-7 -6 -1 0
9 -4 3 0
9 -1 6 0
7 -1 9 0
-4 9 5 0
7 -2 -4 0
7 2 9 0
-5 -9 -4 0
5 10 2 0
-5 2 -7 0
10 3 -5 0
-5 -10 2 0
3 -7 -2 0
-9 -10 -5 0
-2 -1 3 0
-6 -3 9 0
-7 4 9 0
4 -3 -2 0
2 3 -7 0
-4 8 -1 0
-10 4 9 0
10 1 -8 0
